      50
547501 608703
752066 259106
208357 809734
249494 324079
 86358 100414
343741 976115
463160   9667
105145 724448
434755 100309
111581  77438
 95759 317093
526733 782317
214575 286861
 43684 425867
565110 712589
161386 634716
320438 471931
803722 800902
927599 796741
982346 976238
953515 307170
993124 171607
362156 140522
541037 583247
172837 583978
143034  25316
639936 306906
648719 405454
277887 257626
762796 966090
877318 887004
236864 374623
380549 799125
383570 828943
946068 446878
350920 581654
620528 610924
368991 743270
765364 226496
633825 625695
814464 978088
496310 242267
416064 362490
570863 711735
719865  28264
 76193 117865
547247 658267
373528 853101
963429 500657
192095 352489
